NAME : rbg323.471.tour
COMMENT : Length = 471
COMMENT : Found by LKH [Keld Helsgaun] Sat May 25 06:41:18 2013
TYPE : TOUR
DIMENSION : 65
TOUR_SECTION
1
315
90
212
228
12
28
179
319
84
26
154
3
301
281
285
36
153
297
42
136
35
2
113
31
126
316
57
121
122
17
120
37
250
109
105
210
75
8
70
11
116
7
30
50
302
137
157
15
227
115
232
32
66
140
172
163
256
217
110
216
111
287
27
48
-1
EOF
